Version identifier: 22.1.1.0 | 2022-11-28 | 9160aff4d
CPXPARAM_Read_DataCheck                          1
CPXPARAM_MIP_Cuts_Covers                         1
CPXPARAM_MIP_Strategy_NodeSelect                 2
CPXPARAM_MIP_Cuts_FlowCovers                     1
CPXPARAM_MIP_Cuts_MIRCut                         1
CPXPARAM_MIP_Strategy_HeuristicFreq              5
CPXPARAM_TimeLimit                               194
Tried aggregator 2 times.
MIP Presolve eliminated 115 rows and 427 columns.
MIP Presolve added 28 rows and 0 columns.
MIP Presolve modified 13378 coefficients.
Aggregator did 5 substitutions.
Reduced MIP has 2646 rows, 3522 columns, and 19050 nonzeros.
Reduced MIP has 3473 binaries, 0 generals, 0 SOSs, and 0 indicators.
Presolve time = 0.02 sec. (24.53 ticks)
Found incumbent of value 1649.000000 after 0.04 sec. (50.69 ticks)
Probing time = 0.01 sec. (4.69 ticks)
Tried aggregator 1 time.
Detecting symmetries...
Reduced MIP has 2646 rows, 3522 columns, and 19050 nonzeros.
Reduced MIP has 3473 binaries, 0 generals, 0 SOSs, and 0 indicators.
Presolve time = 0.01 sec. (10.79 ticks)
Probing time = 0.01 sec. (4.57 ticks)
Clique table members: 11082.
MIP emphasis: balance optimality and feasibility.
MIP search method: dynamic search.
Parallel mode: deterministic, using up to 12 threads.
Root relaxation solution time = 0.03 sec. (20.84 ticks)

        Nodes                                         Cuts/
   Node  Left     Objective  IInf  Best Integer    Best Bound    ItCnt     Gap

*     0+    0                         1649.0000        0.0000           100.00%
      0     0      293.8245    84     1649.0000      293.8245      509   82.18%
*     0+    0                         1265.0000      293.8245            76.77%
      0     0      315.1714    98     1265.0000     Cuts: 107      623   75.09%
      0     0      319.1000    44     1265.0000      Cuts: 66      725   74.77%
      0     0      319.1000    36     1265.0000      Cuts: 51      779   74.77%
      0     0      319.6000    27     1265.0000      Cuts: 20      824   74.74%
      0     0      319.6354    94     1265.0000      Cuts: 21      901   74.73%
Detecting symmetries...
      0     0      319.6576   100     1265.0000      Cuts: 41      933   74.73%
      0     0      319.8520    97     1265.0000      Cuts: 20      970   74.72%
      0     0      319.8520    96     1265.0000      Cuts: 47      985   74.72%
      0     0      319.8520    93     1265.0000      Cuts: 11     1026   74.72%
*     0+    0                          385.0000      319.8520            16.92%
*     0+    0                          382.0000      319.8520            16.27%
      0     0  -1.00000e+75     0      382.0000      319.8520     1026   16.27%
Detecting symmetries...

Repeating presolve.
Tried aggregator 1 time.
MIP Presolve eliminated 1075 rows and 1128 columns.
Reduced MIP has 1571 rows, 2394 columns, and 11995 nonzeros.
Reduced MIP has 2345 binaries, 0 generals, 0 SOSs, and 0 indicators.
Presolve time = 0.01 sec. (6.11 ticks)
Probing time = 0.01 sec. (3.55 ticks)
Cover probing fixed 0 vars, tightened 18 bounds.
Tried aggregator 1 time.
Detecting symmetries...
MIP Presolve modified 852 coefficients.
Reduced MIP has 1571 rows, 2394 columns, and 11995 nonzeros.
Reduced MIP has 2345 binaries, 0 generals, 0 SOSs, and 0 indicators.
Presolve time = 0.01 sec. (7.02 ticks)
Represolve time = 0.03 sec. (25.93 ticks)
Probing time = 0.01 sec. (3.40 ticks)
Clique table members: 7165.
MIP emphasis: balance optimality and feasibility.
MIP search method: dynamic search.
Parallel mode: deterministic, using up to 12 threads.
Root relaxation solution time = 0.02 sec. (26.15 ticks)

        Nodes                                         Cuts/
   Node  Left     Objective  IInf  Best Integer    Best Bound    ItCnt     Gap

*     0+    0                          382.0000      319.8520            16.27%
      0     0      319.8520    84      382.0000      319.8520     1751   16.27%
      0     0      319.8892    94      382.0000      Cuts: 60     1820   16.26%
      0     0      319.9621    89      382.0000     Cuts: 230     1892   16.24%
      0     0      319.9621    94      382.0000     Cuts: 203     1962   16.24%
      0     0      319.9621    95      382.0000      Cuts: 20     2009   16.24%
*     0+    0                          377.0000      319.9621            15.13%
      0     0  -1.00000e+75     0      377.0000      319.9621     2009   15.13%
*     0+    0                          370.0000      319.9621            13.52%
Detecting symmetries...
      0     2      319.9621    87      370.0000      319.9621     2009   13.52%
Elapsed time = 1.78 sec. (1621.16 ticks, tree = 0.02 MB, solutions = 6)
    568   447      321.2758    61      370.0000      320.0024    17145   13.51%
   1418  1146      322.4124    36      370.0000      320.0024    46261   13.51%
   2421  1954      322.8644    44      370.0000      320.0024    73864   13.51%
   3389  2899      323.9056    47      370.0000      320.0024   102727   13.51%

Performing restart 1

Repeating presolve.
Tried aggregator 1 time.
MIP Presolve eliminated 229 rows and 236 columns.
MIP Presolve modified 2936 coefficients.
Reduced MIP has 1342 rows, 2158 columns, and 10142 nonzeros.
Reduced MIP has 2109 binaries, 0 generals, 0 SOSs, and 0 indicators.
Presolve time = 0.01 sec. (11.77 ticks)
Tried aggregator 1 time.
MIP Presolve modified 106 coefficients.
Reduced MIP has 1342 rows, 2158 columns, and 10142 nonzeros.
Reduced MIP has 2109 binaries, 0 generals, 0 SOSs, and 0 indicators.
Presolve time = 0.01 sec. (6.22 ticks)
Represolve time = 0.04 sec. (32.51 ticks)
   3900     0      320.3043   124      370.0000      Cuts: 53   121088   13.43%
   3900     0      320.6000    59      370.0000     Cuts: 210   121230   13.35%
   3900     0      320.6054    89      370.0000      Cuts: 94   121357   13.35%
   3900     0      320.6408    92      370.0000      Cuts: 52   121441   13.34%
   3900     0      320.6408    96      370.0000     Cuts: 137   121538   13.34%
   3900     0      320.6408    92      370.0000      Cuts: 53   121609   13.34%
   3900     0      320.6408    88      370.0000      Cuts: 40   121654   13.34%
   3900     0      320.6408    83      370.0000      Cuts: 19   121679   13.34%
*  3900+    0                          369.0000      320.6408            13.11%
*  3900+    0                          350.0000      320.6408             8.39%
   3900     2      320.6408    78      350.0000      321.1125   121679    8.25%
*  3901+    1                          331.0000      321.1125             2.99%
   3903     5      320.7111    57      331.0000      321.1125   121957    2.99%
   4024    49      325.1625    49      331.0000      321.1125   125449    2.99%
   4447   261        cutoff            331.0000      321.1355   140833    2.98%
   5275   464      326.3917    74      331.0000      321.1355   157482    2.98%
  11118   708    infeasible            331.0000      322.9633   243889    2.43%
Elapsed time = 7.54 sec. (6991.03 ticks, tree = 0.53 MB, solutions = 9)

GUB cover cuts applied:  5
Clique cuts applied:  25
Cover cuts applied:  102
Implied bound cuts applied:  19
Flow cuts applied:  4
Mixed integer rounding cuts applied:  124
Zero-half cuts applied:  24
Lift and project cuts applied:  21
Gomory fractional cuts applied:  27

Root node processing (before b&c):
  Real time             =    1.77 sec. (1620.47 ticks)
Parallel b&c, 12 threads:
  Real time             =    6.97 sec. (6166.62 ticks)
  Sync time (average)   =    1.14 sec.
  Wait time (average)   =    0.01 sec.
                          ------------
Total (root+branch&cut) =    8.75 sec. (7787.09 ticks)
